3558
3682
3632
3590
3615
3643
3646
3594
3605
3640
3691
3621
3703
3660
3658
3564
3653
3605
3630
3655
3616
3585
3682
3651
3637
3559
3592
3646
3636
3628
3623
3650
3673
3637
3622
3675
3657
3626
3563
3567
3625
3636
3615
3563
3685
3646
3684
3658
3677
3677
3646
3657
3644
3673
3587
3620
3616
3671
3542
3624
3617
3674
3677
3674
3631
3563
3676
3621
3627
3671
3660
3681
3668
3610
3646
3666
3599
3584
3640
3592
3677
3650
3640
3578
3649
3658
3659
3674
3608
3630
3613
3574
3674
3687
3681
3680
3563
3561
3681
3676
